NAME : AA75.2461639.tour
COMMENT : Cost = 0_2461639
COMMENT : Found by LKH [Keld Helsgaun] Sun Apr 23 15:14:35 2017
TYPE : TOUR
DIMENSION : 155
TOUR_SECTION
1
54
129
66
141
50
125
69
59
144
134
45
120
4
79
51
126
35
110
40
115
53
128
7
76
82
151
6
81
21
5
80
96
3
78
47
122
152
10
85
13
88
60
135
62
137
55
130
58
133
19
94
56
131
20
9
95
84
14
89
30
28
105
103
154
17
92
41
116
11
86
36
111
23
98
57
132
72
147
74
149
71
146
42
117
44
119
16
91
39
114
52
127
153
48
18
123
75
93
150
15
90
63
67
142
138
37
112
64
139
61
136
46
121
33
73
108
148
22
97
49
124
34
109
155
31
106
25
100
2
32
107
12
87
43
77
24
99
118
27
102
29
104
26
101
68
143
70
145
65
140
8
83
38
113
-1
EOF
